; Copyright (c) 2026 The RIINA Authors. All rights reserved.
; Auto-generated from 02_FORMAL/coq/Industries/IndustryMilitary.v (27 validations)
; Generated by scripts/generate-full-stack.py
;
; Translation Validation for IndustryMilitary
; Layer 9: Verifies compiler backend preserves formal semantics.
; Each assertion checks source IR ≡ target code for a proven property.

(set-logic QF_LIA)
(set-option :produce-models true)

; IR node representation
(declare-sort IRNode 0)
(declare-sort TargetNode 0)

; class_le: source semantics (matches Coq)
(declare-fun source_class_le () Bool)
(declare-fun target_class_le () Bool)
(assert (= source_class_le target_class_le))

; class_to_nat: source semantics (matches Coq)
(declare-fun source_class_to_nat () Bool)
(declare-fun target_class_to_nat () Bool)
(assert (= source_class_to_nat target_class_to_nat))

; has_compartment: source semantics (matches Coq)
(declare-fun source_has_compartment () Bool)
(declare-fun target_has_compartment () Bool)
(assert (= source_has_compartment target_has_compartment))

; class_max: source semantics (matches Coq)
(declare-fun source_class_max () Bool)
(declare-fun target_class_max () Bool)
(assert (= source_class_max target_class_max))

; key_level: source semantics (matches Coq)
(declare-fun source_key_level () Bool)
(declare-fun target_key_level () Bool)
(assert (= source_key_level target_key_level))

; weapon_system_authorized: source semantics (matches Coq)
(declare-fun source_weapon_system_authorized () Bool)
(declare-fun target_weapon_system_authorized () Bool)
(assert (= source_weapon_system_authorized target_weapon_system_authorized))

; redundancy_factor: source semantics (matches Coq)
(declare-fun source_redundancy_factor () Bool)
(declare-fun target_redundancy_factor () Bool)
(assert (= source_redundancy_factor target_redundancy_factor))

; nist_800_171_access_control: translation preserves property (matches Coq: Theorem)
(declare-fun source_nist_800_171_access_control () Bool)
(declare-fun target_nist_800_171_access_control () Bool)
(assert (= source_nist_800_171_access_control target_nist_800_171_access_control))

; cmmc_level3_compliance: translation preserves property (matches Coq: Theorem)
(declare-fun source_cmmc_level3_compliance () Bool)
(declare-fun target_cmmc_level3_compliance () Bool)
(assert (= source_cmmc_level3_compliance target_cmmc_level3_compliance))

; itar_export_control: translation preserves property (matches Coq: Theorem)
(declare-fun source_itar_export_control () Bool)
(declare-fun target_itar_export_control () Bool)
(assert (= source_itar_export_control target_itar_export_control))

; mil_std_882_safety: translation preserves property (matches Coq: Theorem)
(declare-fun source_mil_std_882_safety () Bool)
(declare-fun target_mil_std_882_safety () Bool)
(assert (= source_mil_std_882_safety target_mil_std_882_safety))

; rmf_authorization: translation preserves property (matches Coq: Theorem)
(declare-fun source_rmf_authorization () Bool)
(declare-fun target_rmf_authorization () Bool)
(assert (= source_rmf_authorization target_rmf_authorization))

; class_le_refl: translation preserves property (matches Coq: Lemma)
(declare-fun source_class_le_refl () Bool)
(declare-fun target_class_le_refl () Bool)
(assert (= source_class_le_refl target_class_le_refl))

; class_le_trans: translation preserves property (matches Coq: Lemma)
(declare-fun source_class_le_trans () Bool)
(declare-fun target_class_le_trans () Bool)
(assert (= source_class_le_trans target_class_le_trans))

; no_read_up: translation preserves property (matches Coq: Theorem)
(declare-fun source_no_read_up () Bool)
(declare-fun target_no_read_up () Bool)
(assert (= source_no_read_up target_no_read_up))

; class_le_iff_nat: translation preserves property (matches Coq: Lemma)
(declare-fun source_class_le_iff_nat () Bool)
(declare-fun target_class_le_iff_nat () Bool)
(assert (= source_class_le_iff_nat target_class_le_iff_nat))

; class_le_antisym: translation preserves property (matches Coq: Lemma)
(declare-fun source_class_le_antisym () Bool)
(declare-fun target_class_le_antisym () Bool)
(assert (= source_class_le_antisym target_class_le_antisym))

; class_le_total: translation preserves property (matches Coq: Lemma)
(declare-fun source_class_le_total () Bool)
(declare-fun target_class_le_total () Bool)
(assert (= source_class_le_total target_class_le_total))

; unclassified_bottom: translation preserves property (matches Coq: Lemma)
(declare-fun source_unclassified_bottom () Bool)
(declare-fun target_unclassified_bottom () Bool)
(assert (= source_unclassified_bottom target_unclassified_bottom))

; ts_sci_top: translation preserves property (matches Coq: Lemma)
(declare-fun source_ts_sci_top () Bool)
(declare-fun target_ts_sci_top () Bool)
(assert (= source_ts_sci_top target_ts_sci_top))

; bell_lapadula_ss: translation preserves property (matches Coq: Theorem)
(declare-fun source_bell_lapadula_ss () Bool)
(declare-fun target_bell_lapadula_ss () Bool)
(assert (= source_bell_lapadula_ss target_bell_lapadula_ss))

; bell_lapadula_star: translation preserves property (matches Coq: Theorem)
(declare-fun source_bell_lapadula_star () Bool)
(declare-fun target_bell_lapadula_star () Bool)
(assert (= source_bell_lapadula_star target_bell_lapadula_star))

; has_compartment_In: translation preserves property (matches Coq: Lemma)
(declare-fun source_has_compartment_In () Bool)
(declare-fun target_has_compartment_In () Bool)
(assert (= source_has_compartment_In target_has_compartment_In))

; empty_need_to_know_unrestricted: translation preserves property (matches Coq: Lemma)
(declare-fun source_empty_need_to_know_unrestricted () Bool)
(declare-fun target_empty_need_to_know_unrestricted () Bool)
(assert (= source_empty_need_to_know_unrestricted target_empty_need_to_know_unrestricted))

; comsec_required_for_classified_comms: translation preserves property (matches Coq: Theorem)
(declare-fun source_comsec_required_for_classified_comms () Bool)
(declare-fun target_comsec_required_for_classified_comms () Bool)
(assert (= source_comsec_required_for_classified_comms target_comsec_required_for_classified_comms))

; tempest_required_for_secret: translation preserves property (matches Coq: Theorem)
(declare-fun source_tempest_required_for_secret () Bool)
(declare-fun target_tempest_required_for_secret () Bool)
(assert (= source_tempest_required_for_secret target_tempest_required_for_secret))

; cross_domain_no_downgrade: translation preserves property (matches Coq: Theorem)
(declare-fun source_cross_domain_no_downgrade () Bool)
(declare-fun target_cross_domain_no_downgrade () Bool)
(assert (= source_cross_domain_no_downgrade target_cross_domain_no_downgrade))

; class_max_ge_left: translation preserves property (matches Coq: Lemma)
(declare-fun source_class_max_ge_left () Bool)
(declare-fun target_class_max_ge_left () Bool)
(assert (= source_class_max_ge_left target_class_max_ge_left))

; class_max_ge_right: translation preserves property (matches Coq: Lemma)
(declare-fun source_class_max_ge_right () Bool)
(declare-fun target_class_max_ge_right () Bool)
(assert (= source_class_max_ge_right target_class_max_ge_right))

; aggregation_raises_classification: translation preserves property (matches Coq: Theorem)
(declare-fun source_aggregation_raises_classification () Bool)
(declare-fun target_aggregation_raises_classification () Bool)
(assert (= source_aggregation_raises_classification target_aggregation_raises_classification))

; key_level_monotone: translation preserves property (matches Coq: Lemma)
(declare-fun source_key_level_monotone () Bool)
(declare-fun target_key_level_monotone () Bool)
(assert (= source_key_level_monotone target_key_level_monotone))

; personnel_clearance_dominates: translation preserves property (matches Coq: Theorem)
(declare-fun source_personnel_clearance_dominates () Bool)
(declare-fun target_personnel_clearance_dominates () Bool)
(assert (= source_personnel_clearance_dominates target_personnel_clearance_dominates))

; weapon_auth_requires_ts: translation preserves property (matches Coq: Theorem)
(declare-fun source_weapon_auth_requires_ts () Bool)
(declare-fun target_weapon_auth_requires_ts () Bool)
(assert (= source_weapon_auth_requires_ts target_weapon_auth_requires_ts))

; redundancy_monotone: translation preserves property (matches Coq: Theorem)
(declare-fun source_redundancy_monotone () Bool)
(declare-fun target_redundancy_monotone () Bool)
(assert (= source_redundancy_monotone target_redundancy_monotone))

; Verify all translation validations are satisfiable
(check-sat)
(exit)
